Route #1: 1 1 37 30 21 8 38 10 25 23 1 
Route #2: 1 17 9 7 18 13 2 6 28 14 1 
Route #3: 1 42 15 20 16 40 35 39 41 1 
Route #4: 1 33 44 11 29 31 1 
Route #5: 1 22 5 24 3 19 1 
Route #6: 1 36 27 43 4 26 1 
Route #7: 1 32 12 34 1 

Cost 1605.32
Time 0.3544


 * Another infos *

 Iterations: 45 Time: 0.3544 sec - 0.0059 min - 0.0001 horas
0.0000 h 0.0059 min
Problem dimension: 45
